10J3M/DAT/10J3MNLL-3.dat
10 3
28.0727 28.0727
25.4258 25.4258
20.0533 20.0533
26.5859 26.5859
20.4223 20.4223
27.9832 27.9832
23.9469 23.9469
28.1908 28.1908
28.32 28.32
19.7261 19.7261
82.909