10J3M/SOL/10J3MNLL-3.sol
solution status: optimal solution found
objective value:                     94.6411666666667
x#1#1                                               1 	(obj:0)
x#2#2                                               1 	(obj:0)
x#3#1                                               1 	(obj:0)
x#4#2                                               1 	(obj:0)
x#5#3                                               1 	(obj:0)
x#6#3                                               1 	(obj:0)
x#7#1                                               1 	(obj:0)
x#8#2                               0.228417482109101 	(obj:0)
x#8#3                               0.771582517890899 	(obj:0)
x#9#1                               0.996598037346696 	(obj:0)
x#9#2                             0.00340196265330395 	(obj:0)
x#10#2                                              1 	(obj:0)
z                                    94.6411666666667 	(obj:1)
